NAME : prob35d.7905.tour
COMMENT : Cost = 0_7905
COMMENT : Found by LKH [Keld Helsgaun] Sun Sep 17 01:09:44 2017
TYPE : TOUR
DIMENSION : 71
TOUR_SECTION
1
50
65
57
52
39
51
4
62
69
64
53
70
22
27
45
46
42
59
48
44
35
47
67
63
68
71
58
40
5
61
38
30
13
66
37
32
34
54
56
26
55
9
60
10
24
29
17
25
36
3
43
18
21
31
33
16
19
23
11
41
28
8
7
12
2
6
49
15
20
14
-1
EOF
